p cnf 768 1835
c ind 752 601 755 751 759 602 736 603 728 730 0
c ind 756 765 731 760 762 741 757 763 764 758 0
c ind 761 766 713 605 738 737 753 733 748 702 0
c ind 707 750 708 718 715 739 688 714 607 710 0
c ind 749 754 743 742 746 747 693 609 729 732 0
c ind 690 625 689 727 621 622 642 656 686 740 0
c ind 643 661 745 658 615 610 614 612 657 720 0
c ind 611 624 613 723 719 724 705 706 744 725 0
c ind 704 695 646 649 697 722 630 694 662 672 0
c ind 669 716 721 698 703 671 631 670 673 696 0
c ind 726 709 665 701 735 734 717 636 633 699 0
c ind 691 635 685 676 700 674 659 692 653 654 0
c ind 711 678 650 680 683 679 682 677 638 647 0
c ind 655 675 684 712 681 616 626 629 637 648 0
c ind 660 620 628 668 619 651 652 604 641 667 0
c ind 623 639 663 666 617 627 634 618 687 640 0
c ind 644 632 664 606 645 608 1 0
c ret 424 549 550 551 552 553 554 555 425 556 0
c ret 557 461 462 558 559 560 561 562 563 463 0
c ret 564 565 566 426 567 568 569 570 571 572 0
c ret 573 464 465 427 574 575 576 577 578 579 0
c ret 580 581 582 583 584 585 586 428 587 588 0
c ret 589 590 591 592 593 594 595 596 429 597 0
c ret 598 599 600 430 466 431 467 468 469 432 0
c ret 416 433 470 471 472 434 435 473 436 474 0
c ret 437 475 438 476 477 439 417 440 478 479 0
c ret 441 480 481 482 483 442 484 485 443 486 0
c ret 487 444 488 489 445 490 446 491 492 418 0
c ret 493 494 495 496 497 498 499 500 501 447 0
c ret 448 449 450 502 451 452 503 504 419 453 0
c ret 505 454 506 507 508 509 420 510 511 512 0
c ret 513 514 515 516 517 518 421 519 520 521 0
c ret 522 523 524 525 526 455 456 527 528 529 0
c ret 457 530 458 422 531 532 533 534 535 459 0
c ret 536 460 537 538 539 540 423 541 542 543 0
c ret 544 545 546 547 548 0
2 3 288 -296 0
2 3 -290 -296 0
-2 -3 0
-2 296 0
-2 -288 290 0
3 -4 21 -65 0
3 21 -46 -65 0
-3 65 0
-3 -21 0
-3 4 46 0
4 -19 -604 0
4 5 604 0
-4 -5 604 0
-4 19 -604 0
5 -16 -606 0
5 6 606 0
-5 -6 606 0
-5 16 -606 0
6 -9 -608 0
6 7 608 0
-6 -7 608 0
-6 9 -608 0
7 -626 -647 0
7 -8 -647 0
-7 647 0
-7 8 626 0
8 -619 -620 -648 0
-8 619 0
-8 620 0
-8 648 0
7 9 10 0
9 -10 676 0
-7 -9 10 0
-9 -10 -676 0
10 11 627 0
-10 -627 0
-10 -11 0
11 12 -677 0
-11 677 0
-11 -12 0
12 13 680 0
12 13 681 0
-12 -13 0
-12 -680 -681 0
13 14 -15 627 677 0
-13 15 0
-13 -14 0
-13 -627 0
-13 -677 0
14 628 637 -684 0
-14 684 0
-14 -637 0
-14 -628 0
15 -678 680 681 0
-15 678 0
-15 -681 0
-15 -680 0
16 -17 -701 0
6 16 17 0
-6 -16 17 0
-16 -17 701 0
11 17 -18 0
-11 -17 0
-17 18 0
18 608 627 0
-18 -608 0
-18 -627 0
5 19 20 0
19 -20 727 0
-5 -19 20 0
-19 -20 -727 0
11 -18 20 606 0
18 -20 0
-11 -20 0
-20 -606 0
21 -22 602 0
-4 21 -22 -27 0
-21 22 0
-21 27 -602 0
4 -21 -602 0
22 -23 -26 0
-22 23 0
-22 26 0
23 -604 -750 0
23 -24 604 0
-23 24 604 0
-23 -604 750 0
24 -606 -729 0
24 -25 606 0
-24 25 606 0
-24 -606 729 0
25 -608 -705 0
25 608 -706 0
-25 608 706 0
-25 -608 705 0
26 655 -703 0
26 -703 -704 0
-26 703 0
-26 -655 704 0
27 40 744 751 0
27 -28 40 751 0
-27 -40 0
-27 -751 0
-27 28 -744 0
28 35 735 742 0
28 -29 35 742 0
-28 -35 0
-28 -742 0
-28 29 -735 0
29 -604 735 0
29 -30 604 0
-29 -604 -735 0
-29 30 604 0
30 -606 712 0
30 -31 606 0
-30 -606 -712 0
-30 31 606 0
31 -608 687 0
31 -32 608 0
-31 -608 -687 0
-31 32 608 0
32 -34 634 0
32 -34 -645 0
32 33 -34 0
-32 34 0
-32 -33 -634 645 0
33 664 666 667 -668 0
-33 668 0
-33 -667 0
-33 -664 0
-33 -666 0
34 666 667 0
34 645 664 0
34 664 667 0
34 645 666 0
-34 -664 -666 0
-34 -645 -667 0
35 36 -712 0
35 36 -734 0
-35 -36 0
-35 712 734 0
36 37 604 0
36 -604 712 734 0
-36 -604 -712 0
-36 -37 604 0
-36 -604 -734 0
37 -606 -687 0
37 38 606 0
37 -606 -711 0
-37 -38 606 0
-37 -606 687 711 0
38 -39 608 0
-38 -608 0
-38 39 0
39 -645 664 0
39 645 663 0
-39 645 -663 0
-39 -645 -664 0
40 -604 -732 0
40 41 604 0
-40 -604 732 0
-40 -41 604 0
41 -606 709 0
41 -42 606 0
-41 -606 -709 0
-41 42 606 0
42 -608 685 0
42 -43 608 0
-42 -608 -685 0
-42 43 608 0
43 44 616 0
43 44 638 639 0
-43 -44 0
-43 -616 -639 0
-43 -616 -638 0
44 45 617 -638 -639 0
-44 -617 0
-44 -45 0
-44 639 0
-44 638 0
45 -640 -641 0
-45 640 0
-45 641 0
46 47 -64 0
-46 -47 0
-46 64 0
47 -62 -421 0
47 48 421 0
-47 -48 421 0
-47 62 -421 0
48 -59 -423 0
48 49 423 0
-48 -49 423 0
-48 59 -423 0
49 -52 -425 0
49 50 425 0
-49 -50 425 0
-49 52 -425 0
50 -443 -464 0
50 -51 -464 0
-50 464 0
-50 51 443 0
51 -436 -437 -465 0
-51 436 0
-51 437 0
-51 465 0
50 52 53 0
52 -53 493 0
-50 -52 53 0
-52 -53 -493 0
53 54 444 0
-53 -444 0
-53 -54 0
54 55 -494 0
-54 494 0
-54 -55 0
55 56 497 0
55 56 498 0
-55 -56 0
-55 -497 -498 0
56 57 -58 444 494 0
-56 58 0
-56 -57 0
-56 -444 0
-56 -494 0
57 445 454 -501 0
-57 501 0
-57 -454 0
-57 -445 0
58 -495 497 498 0
-58 495 0
-58 -498 0
-58 -497 0
59 -60 -518 0
49 59 60 0
-49 -59 60 0
-59 -60 518 0
54 60 -61 0
-54 -60 0
-60 61 0
61 425 444 0
-61 -425 0
-61 -444 0
48 62 63 0
62 -63 544 0
-48 -62 63 0
-62 -63 -544 0
54 -61 63 423 0
61 -63 0
-54 -63 0
-63 -423 0
-18 64 604 606 0
18 -64 0
-64 -606 0
-64 -604 0
65 -75 -89 0
65 66 -89 604 0
-65 89 0
-65 -66 75 0
-65 75 -604 0
66 67 74 0
5 66 67 -70 0
-66 -67 0
-5 -66 -74 0
-66 70 -74 0
67 -68 728 731 0
67 68 69 728 -731 0
-67 -68 -731 0
-67 68 -69 0
-67 -728 0
-67 68 731 0
68 606 608 0
-68 -606 0
-68 -608 0
-24 -26 69 0
24 -69 0
26 -69 0
-41 70 -71 730 0
-41 70 721 730 0
41 -70 0
-70 -730 0
-70 71 -721 0
71 72 712 719 0
-30 71 72 719 0
-71 -72 0
-71 -719 0
30 -71 -712 0
72 73 -687 0
72 73 -711 0
-72 -73 0
-72 687 711 0
-38 73 606 0
-73 -606 0
38 -73 0
68 -69 74 -728 0
-74 728 0
-68 -74 0
69 -74 0
-19 75 -76 86 -88 0
-75 88 0
19 -75 0
-75 76 0
-75 -86 0
76 77 79 81 83 0
-76 -83 0
-76 -81 0
-76 -77 0
-76 -79 0
-68 77 -78 0
-41 -68 77 -618 0
68 -77 0
41 -77 78 0
-77 78 618 0
78 -653 654 -655 0
-78 653 0
-78 -654 0
-78 655 0
71 79 -80 0
-71 -79 0
-79 80 0
37 80 720 0
80 712 720 0
-80 -720 0
-37 -80 -712 0
81 82 724 0
81 -606 724 0
-81 -724 0
-81 -82 606 0
82 608 623 0
-82 -608 0
-82 -623 0
83 84 721 0
-83 -721 0
-83 -84 0
84 -85 -712 0
84 712 723 0
-84 712 -723 0
-84 85 -712 0
85 644 645 0
85 632 -645 0
-85 -644 645 0
-85 -632 -645 0
85 86 721 -722 0
85 86 87 721 0
-86 -721 0
-85 -86 0
-86 -87 722 0
87 687 711 0
-87 -687 0
-87 -711 0
-68 78 81 88 -604 0
68 -88 0
-81 -88 0
-88 604 0
-78 -88 0
4 89 -90 -278 0
-47 89 -90 -278 0
-89 278 0
-89 90 0
-4 47 -89 0
-76 90 -91 -100 -108 0
-90 108 0
76 -90 0
-90 100 0
-90 91 0
-29 71 91 -92 0
29 71 91 92 0
29 91 92 -98 0
-29 91 -92 -98 0
-29 -91 92 0
29 -91 -92 0
-71 -91 98 0
92 -421 552 0
92 -93 421 0
-92 -421 -552 0
-92 93 421 0
93 -423 529 0
93 -94 423 0
-93 -423 -529 0
-93 94 423 0
94 -425 504 0
94 -95 425 0
-94 -425 -504 0
-94 95 425 0
95 -97 451 0
95 -97 -462 0
95 96 -97 0
-95 97 0
-95 -96 -451 462 0
96 481 483 484 -485 0
-96 485 0
-96 -484 0
-96 -481 0
-96 -483 0
97 483 484 0
97 462 481 0
97 481 484 0
97 462 483 0
-97 -481 -483 0
-97 -462 -484 0
98 -99 606 0
-98 -606 0
-98 99 0
-38 99 695 0
99 687 695 0
-99 -695 0
38 -99 -687 0
-28 100 0
100 101 102 0
28 -100 -101 0
28 -100 -102 0
-36 101 743 0
101 735 743 0
-101 -743 0
36 -101 -735 0
102 103 575 577 0
-92 102 103 575 0
-102 -575 0
-102 -103 0
92 -102 -577 0
103 104 -552 0
103 104 -576 0
-103 -104 0
-103 552 576 0
104 105 421 0
104 -421 529 551 0
-104 -421 -529 0
-104 -105 421 0
-104 -421 -551 0
105 -423 -504 0
105 106 423 0
105 -423 -528 0
-105 -106 423 0
-105 -423 504 528 0
106 -107 425 0
-106 -425 0
-106 107 0
107 -462 481 0
107 462 480 0
-107 462 -480 0
-107 -462 -481 0
108 109 -110 -120 -138 0
-108 -109 0
-108 138 0
-108 120 0
-108 110 0
-28 109 -604 0
-28 80 109 0
-28 102 109 0
28 -109 0
-80 -102 -109 604 0
-40 110 -119 0
110 111 117 -119 0
-110 119 0
40 -110 -111 0
40 -110 -117 0
111 -421 -549 0
111 112 421 0
-111 -421 549 0
-111 -112 421 0
112 -423 526 0
112 -113 423 0
-112 -423 -526 0
-112 113 423 0
113 -425 502 0
113 -114 425 0
-113 -425 -502 0
-113 114 425 0
114 115 433 0
114 115 455 456 0
-114 -115 0
-114 -433 -456 0
-114 -433 -455 0
115 116 434 -455 -456 0
-115 -434 0
-115 -116 0
-115 456 0
-115 455 0
116 -457 -458 0
-116 457 0
-116 458 0
117 -118 -618 0
-117 618 0
-117 118 0
118 604 606 608 0
-118 -604 0
-118 -608 0
-118 -606 0
-18 119 -604 0
-6 79 119 0
-6 119 -604 0
-18 79 119 0
-79 -119 604 0
6 18 -119 0
40 120 -121 -128 0
-111 120 -121 -128 0
-120 128 0
-120 121 0
-40 111 -120 0
98 121 -123 -125 0
121 -122 123 125 0
98 121 123 125 0
121 -122 -123 -125 0
-121 123 -125 0
-121 -123 125 0
-98 -121 122 0
-38 122 687 694 0
-31 -38 122 694 0
38 -122 0
-122 -694 0
31 -122 -687 0
-118 123 -677 0
118 123 124 0
-118 -123 677 0
118 -123 -124 0
-12 124 677 0
-12 124 627 0
12 -124 0
-124 -627 -677 0
125 -126 -494 0
125 126 127 0
-125 -126 494 0
-125 126 -127 0
126 421 423 425 0
-126 -421 0
-126 -425 0
-126 -423 0
-55 127 494 0
-55 127 444 0
55 -127 0
-127 -444 -494 0
77 128 608 0
-9 77 128 -129 0
-77 -128 0
-128 129 -608 0
9 -128 -608 0
129 130 -134 136 137 0
-129 134 0
-129 -137 0
-129 -130 0
-129 -136 0
130 -131 132 0
-130 131 0
-130 -132 0
-39 131 669 0
-131 -669 0
39 -131 0
-32 -39 132 662 0
-32 132 -133 662 0
-132 -662 0
32 -132 0
39 -132 133 0
133 665 666 0
133 -645 666 0
133 633 645 -666 0
-133 -633 -666 0
-133 -645 -666 0
-133 645 -665 666 0
78 134 135 0
-78 -134 0
-134 -135 0
-43 135 -618 0
-135 618 0
43 -135 0
85 136 670 0
-136 -670 0
-85 -136 0
137 -623 673 0
-137 623 0
-137 -673 0
101 138 139 -140 -143 0
-101 138 -139 -140 -143 0
-138 143 0
-101 -138 139 0
-138 140 0
101 -138 -139 0
-104 139 578 0
139 577 578 0
-139 -578 0
104 -139 -577 0
-122 140 141 0
99 140 141 0
-140 -141 0
-99 122 -140 0
141 142 696 0
-141 -696 0
-141 -142 0
-85 142 -687 0
142 687 697 0
-142 687 -697 0
85 -142 -687 0
143 -144 -167 -168 -174 0
-143 174 0
-143 144 0
-143 168 0
-143 167 0
124 127 130 144 -145 0
-124 -127 130 144 -145 0
-130 -144 0
124 -127 -144 0
-144 145 0
-124 127 -144 0
145 -146 -151 162 -163 0
-145 163 0
-145 146 0
-145 151 0
-145 -162 0
7 146 147 -148 0
146 147 -148 627 0
-146 148 0
-146 -147 0
-7 -146 -627 0
142 147 721 0
-147 -721 0
-142 -147 0
148 -149 150 -744 0
-84 148 149 -150 0
148 149 -150 -744 0
-84 148 -149 150 0
-148 149 150 0
-148 -149 -150 0
84 -148 744 0
149 765 766 0
149 681 -766 0
149 -681 766 0
-149 -681 -766 0
-149 681 -765 766 0
150 -498 -600 0
150 498 -599 600 0
-150 599 600 0
-150 498 -600 0
-150 -498 600 0
151 -152 158 161 0
151 -152 -160 161 0
-151 152 0
-151 -161 0
-151 -158 160 0
141 152 -153 -155 0
141 152 153 155 0
-141 -152 0
-152 -153 155 0
-152 153 -155 0
153 -154 654 0
-153 -654 0
-153 154 0
-68 154 604 0
-154 -604 0
68 -154 0
155 -156 471 0
-155 -471 0
-155 156 0
156 -157 421 0
-156 -421 0
-156 157 0
157 423 425 0
-157 -423 0
-157 -425 0
158 -159 -577 0
158 577 581 0
-158 577 -581 0
-158 159 -577 0
159 461 462 0
159 449 -462 0
-159 -461 462 0
-159 -449 -462 0
-85 160 -735 0
160 735 746 0
-160 735 -746 0
85 -160 -735 0
85 161 670 -671 0
85 133 161 670 0
-161 -670 0
-85 -161 0
-133 -161 671 0
134 162 608 0
-162 -608 0
-134 -162 0
160 163 164 -744 0
-158 -160 163 164 0
-163 -164 0
160 -163 744 0
158 -160 -163 0
164 165 -166 0
164 -165 166 0
-164 -165 -166 0
-164 165 166 0
-118 165 640 0
-165 -640 0
118 -165 0
-126 166 457 0
-166 -457 0
126 -166 0
36 104 122 167 0
-36 -104 122 167 0
-36 -104 167 669 0
36 104 167 669 0
-36 104 -167 0
36 -104 -167 0
-122 -167 -669 0
-22 168 -169 173 0
168 -169 173 602 0
-168 169 0
-168 -173 0
22 -168 -602 0
23 169 170 -608 0
-23 130 169 -170 0
-23 169 -170 -608 0
23 130 169 170 0
23 -169 -170 0
-23 -169 170 0
-130 -169 608 0
170 -421 -567 0
170 -171 421 0
-170 171 421 0
-170 -421 567 0
171 -423 -546 0
171 -172 423 0
-171 172 423 0
-171 -423 546 0
172 -425 -522 0
172 425 -523 0
-172 425 523 0
-172 -425 522 0
-131 173 -634 0
-132 173 -634 0
-173 634 0
131 132 -173 0
174 -175 -226 -232 -253 0
-174 253 0
-174 175 0
-174 232 0
-174 226 0
175 -176 -192 -205 -216 0
-175 216 0
-175 176 0
-175 205 0
-175 192 0
176 -177 -184 -188 -190 0
-176 190 0
-176 177 0
-176 188 0
-176 184 0
85 154 177 -178 -180 0
-85 -177 0
-177 180 0
-177 178 0
-154 -177 0
178 179 -715 0
178 179 606 698 0
-178 -179 0
-178 -698 715 0
-178 -606 715 0
179 -623 658 0
179 -649 658 0
-179 -658 0
-179 623 649 0
78 180 -181 182 183 0
-180 181 0
-180 -183 0
-78 -180 0
-180 -182 0
181 -741 -752 753 757 0
-181 752 0
-181 -757 0
-181 741 0
-181 -753 0
82 182 698 0
-182 -698 0
-82 -182 0
183 577 597 -763 0
183 577 597 -735 0
-183 -577 0
-183 -597 0
-183 735 763 0
137 184 185 -186 0
184 185 -186 -608 0
-184 186 0
-184 -185 0
-137 -184 608 0
185 631 -632 -633 0
-185 633 0
-185 632 0
-185 -631 0
186 187 -453 -636 0
186 187 453 636 0
186 453 -626 636 0
186 -453 -626 -636 0
-186 -453 636 0
-186 453 -636 0
-186 -187 626 0
187 619 -627 0
-187 -619 0
-187 627 0
188 189 627 0
188 189 -619 0
188 189 -630 0
-188 -189 0
-188 619 -627 630 0
189 -623 673 0
189 -623 649 0
-189 623 0
-189 -649 -673 0
190 191 -738 0
190 191 604 724 0
-190 -191 0
-190 -724 738 0
-190 -604 738 0
191 -577 735 763 0
191 -597 735 763 0
-191 -763 0
-191 -735 0
-191 577 597 0
192 -193 -196 -199 -202 0
-192 202 0
-192 193 0
-192 199 0
-192 196 0
193 194 195 472 655 0
193 194 195 -472 -655 0
-193 -194 0
-193 -472 655 0
-193 -195 0
-193 472 -655 0
194 -520 703 0
-194 520 0
-194 -703 0
195 -747 754 0
-195 747 0
-195 -754 0
196 197 198 592 758 0
196 197 198 -592 -758 0
-196 -197 0
-196 -592 758 0
-196 -198 0
-196 592 -758 0
197 501 -684 0
-197 -501 0
-197 684 0
198 520 -703 0
-198 -520 0
-198 703 0
199 -200 201 -704 0
199 -200 201 521 0
-199 200 0
-199 -201 0
-199 -521 704 0
200 -607 635 0
200 -634 -689 0
200 -607 -634 0
200 635 -689 0
-200 634 -635 0
-200 607 689 0
201 -501 684 0
-201 501 0
-201 -684 0
202 203 204 588 754 0
202 203 204 -588 -754 0
-202 -203 0
-202 -588 754 0
-202 -204 0
-202 588 -754 0
203 -636 670 0
-203 636 0
-203 -670 0
204 -609 -657 0
-204 609 0
-204 657 0
205 -206 -209 -210 -211 0
-205 211 0
-205 206 0
-205 210 0
-205 209 0
206 207 -208 689 0
206 207 -208 607 0
-206 208 0
-206 -207 0
-206 -607 -689 0
207 628 637 0
-207 -628 0
-207 -637 0
208 -636 -656 657 -661 0
-208 661 0
-208 636 0
-208 656 0
-208 -657 0
209 714 -718 -736 737 0
-209 -714 0
-209 -737 0
-209 736 0
-209 718 0
210 -688 689 -693 -713 0
-210 713 0
-210 688 0
-210 693 0
-210 -689 0
211 -212 -215 605 -714 0
211 -212 -215 -605 714 0
-211 215 0
-211 605 714 0
-211 212 0
-211 -605 -714 0
212 213 -214 636 0
212 213 -214 -631 0
-212 214 0
-212 -213 0
-212 631 -636 0
213 603 737 0
-213 -603 0
-213 -737 0
214 -598 704 0
214 -521 764 0
214 -521 -598 0
214 704 764 0
-214 598 -764 0
-214 521 -704 0
215 -609 737 0
215 603 -657 0
215 603 -609 0
215 -657 737 0
-215 -603 -737 0
-215 609 657 0
84 86 216 -217 -223 0
-84 -216 0
-216 223 0
-216 217 0
-86 -216 0
117 160 217 218 219 0
-117 160 217 -218 219 0
-160 -217 0
-117 -217 218 0
-217 -219 0
117 -217 -218 0
-126 218 -435 0
-218 435 0
126 -218 0
219 -220 222 0
219 222 754 0
-219 -222 0
-219 220 -754 0
220 -221 421 423 0
-220 221 0
-220 -423 0
-220 -421 0
221 425 440 0
-221 -425 0
-221 -440 0
-82 222 604 606 0
82 -222 0
-222 -606 0
-222 -604 0
142 223 -224 -601 753 0
142 223 -224 601 -753 0
-223 224 0
-223 601 753 0
-142 -223 0
-223 -601 -753 0
224 225 617 0
224 225 -616 0
224 225 618 0
-224 -225 0
-224 616 -617 -618 0
225 619 628 0
225 -619 620 0
-225 -619 -620 0
-225 619 -628 0
83 226 -227 -230 -231 0
83 226 -227 230 231 0
-83 -226 0
-226 230 -231 0
-226 227 0
-226 -230 231 0
64 135 227 228 229 0
-64 135 227 -228 229 0
-135 -227 0
-64 -227 228 0
-227 -229 0
64 -227 -228 0
-61 228 421 423 0
61 -228 0
-228 -423 0
-228 -421 0
222 229 604 724 0
-229 -604 0
-222 -229 0
-229 -724 0
-126 230 470 0
-230 -470 0
126 -230 0
-118 231 653 0
-231 -653 0
118 -231 0
232 -233 -239 -243 -249 0
-232 249 0
-232 233 0
-232 243 0
-232 239 0
85 233 234 -236 0
-159 233 234 -236 0
-233 236 0
-233 -234 0
-85 159 -233 0
234 -235 -623 0
234 -623 624 -625 0
-234 623 0
-234 235 -624 0
-234 235 625 0
235 -621 622 0
-235 621 0
-235 -622 0
236 237 -690 0
-82 236 237 673 0
-236 -237 0
-236 -673 690 0
82 -236 690 0
237 -238 -627 -628 629 0
-237 238 0
-237 627 0
-237 628 0
-237 -629 0
238 -619 -626 0
-238 619 0
-238 626 0
-85 239 -240 -241 0
159 239 -240 -241 0
-239 241 0
-239 240 0
85 -159 -239 0
240 -579 598 -744 0
240 579 598 744 0
240 579 744 -764 0
240 -579 -744 -764 0
-240 -579 744 0
-240 579 -744 0
-240 -598 764 0
241 -242 0
241 -715 -724 0
-241 242 715 0
-241 242 724 0
-82 242 606 0
-242 -606 0
82 -242 0
243 244 246 247 248 0
243 244 -246 -247 248 0
-243 -248 0
-243 -246 247 0
-243 -244 0
-243 246 -247 0
85 244 -245 0
85 244 670 0
85 244 696 0
-85 -244 0
-244 245 -670 -696 0
245 631 -646 0
-245 -631 0
-245 646 0
246 712 734 745 0
-246 -712 0
-246 -745 0
-246 -734 0
247 552 576 580 0
-247 -552 0
-247 -580 0
-247 -576 0
220 -222 248 0
-220 -248 0
222 -248 0
249 -250 252 -606 0
182 249 -250 252 0
-249 250 0
-249 -252 0
-182 -249 606 0
78 250 251 0
154 250 251 0
-250 -251 0
-78 -154 -250 0
251 -623 642 0
251 -623 624 643 0
-251 623 0
-251 -624 -642 0
-251 -642 -643 0
222 252 738 0
222 252 747 0
-222 -252 0
-252 -738 -747 0
253 254 -256 -267 0
253 -255 -256 -267 0
-253 267 0
-253 256 0
-253 -254 255 0
-118 254 762 0
8 -118 254 630 0
118 -254 0
-8 -254 -762 0
-254 -630 -762 0
-156 255 596 0
51 -156 255 447 0
156 -255 0
-51 -255 -596 0
-255 -447 -596 0
256 261 265 266 0
256 -257 -265 -266 0
256 -257 265 266 0
256 261 -265 -266 0
-256 265 -266 0
-256 -265 266 0
-256 257 -261 0
-165 257 -259 639 0
-165 257 -258 -259 0
-257 259 0
165 -257 0
-257 258 -639 0
258 641 651 0
258 -617 641 0
-258 -641 0
-258 617 -651 0
259 260 641 0
259 -260 617 0
259 260 651 0
-259 -260 -617 0
-259 260 -641 -651 0
260 -618 -652 0
-260 618 0
-260 652 0
-166 261 -263 456 0
-166 261 -262 -263 0
-261 263 0
166 -261 0
-261 262 -456 0
262 458 468 0
262 -434 458 0
-262 -458 0
-262 434 -468 0
263 264 458 0
263 -264 434 0
263 264 468 0
-263 -264 -434 0
-263 264 -458 -468 0
264 -435 -469 0
-264 435 0
-264 469 0
154 265 655 0
-154 265 761 0
-154 -265 -761 0
154 -265 -655 0
156 266 472 0
-156 266 595 0
-156 -266 -595 0
156 -266 -472 0
267 -268 -273 -274 -277 0
-267 277 0
-267 268 0
-267 274 0
-267 273 0
268 -269 -270 -272 0
268 269 270 271 0
268 269 270 -272 0
268 -269 -270 271 0
-268 269 -270 0
-268 -269 270 0
-268 -271 272 0
-118 269 -760 0
-269 760 0
118 -269 0
-126 270 -594 0
-270 594 0
126 -270 0
-118 271 -679 0
-271 679 0
118 -271 0
-126 272 -496 0
-272 496 0
126 -272 0
-154 -156 272 273 0
154 156 -271 273 0
154 156 272 273 0
-154 -156 -271 273 0
154 -156 -273 0
-154 156 -273 0
271 -272 -273 0
274 275 -744 0
-85 274 275 0
-246 274 275 0
-274 -275 0
85 246 -274 744 0
275 -276 -611 0
275 -611 613 -615 0
-275 611 0
-275 276 -613 0
-275 276 615 0
276 -610 612 -613 614 0
-276 613 0
-276 -614 0
-276 610 0
-276 -612 0
-254 -261 277 0
255 257 277 0
-254 257 277 0
255 -261 277 0
254 -255 -277 0
-257 261 -277 0
5 278 279 0
-18 278 279 606 0
-278 -279 0
-5 -278 -606 0
-5 18 -278 0
279 285 -606 0
279 280 282 285 0
-279 -285 0
-279 -280 606 0
-279 -282 606 0
280 608 702 708 0
280 281 -608 702 -708 0
-280 -608 708 0
-280 -281 -708 0
-280 -702 0
-280 608 -708 0
-26 281 -608 -705 0
-26 281 608 -706 0
26 -281 0
-281 -608 705 0
-281 608 706 0
-281 282 283 -608 -702 0
281 -282 0
-282 -283 0
-282 608 0
-282 702 0
-6 283 -284 696 0
-6 -122 283 -284 0
-283 284 0
6 -283 0
122 -283 -696 0
-42 284 707 0
-284 -707 0
42 -284 0
16 -140 162 285 -286 0
140 -285 0
-162 -285 0
-16 -285 0
-285 286 0
-85 286 -287 0
286 -287 -696 0
-286 287 0
85 -286 696 0
287 -606 608 623 0
287 -606 608 -698 0
-287 606 0
-287 -608 0
-287 -623 698 0
-170 288 -289 0
170 -288 0
-288 289 0
289 472 -520 0
289 -520 -521 0
-289 520 0
-289 -472 521 0
47 290 -295 0
290 291 292 -295 0
-290 295 0
-47 -290 -292 0
-47 -290 -291 0
111 291 579 585 0
-102 111 291 585 0
-111 -291 0
-291 -585 0
102 -291 -579 0
111 292 -293 568 0
111 292 561 568 0
-111 -292 0
-292 -568 0
-292 293 -561 0
293 294 552 559 0
-92 293 294 559 0
-293 -294 0
-293 -559 0
92 -293 -552 0
104 294 -529 0
104 294 -551 0
-104 -294 0
-294 529 551 0
295 -417 -419 0
-295 417 0
-295 419 0
-47 296 297 -319 0
-228 296 297 -319 0
-296 319 0
-296 -297 0
47 228 -296 0
297 306 -421 0
297 298 300 306 0
-297 -306 0
-297 -298 421 0
-297 -300 421 0
-157 298 545 548 0
157 298 299 545 -548 0
-157 -298 -548 0
157 -298 -299 0
-298 -545 0
157 -298 548 0
-171 -289 299 0
171 -299 0
289 -299 0
157 -299 300 301 -545 0
299 -300 0
-300 -301 0
-300 545 0
-157 -300 0
48 301 -305 538 0
48 301 -302 -305 0
-301 305 0
-48 -301 0
-301 302 -538 0
302 303 529 536 0
-93 302 303 536 0
-302 -303 0
-302 -536 0
93 -302 -529 0
303 304 -504 0
303 304 -528 0
-303 -304 0
-303 504 528 0
-106 304 423 0
-304 -423 0
106 -304 0
-112 305 547 0
-305 -547 0
112 -305 0
-62 306 -307 -311 -316 0
-306 316 0
62 -306 0
-306 311 0
-306 307 0
307 308 310 0
-302 307 308 0
-307 -308 0
302 -307 -310 0
308 309 538 0
-308 -538 0
-308 -309 0
-159 309 -529 0
309 529 540 0
-309 529 -540 0
159 -309 -529 0
105 310 537 0
310 529 537 0
-310 -537 0
-105 -310 -529 0
311 312 314 0
-311 -312 0
-311 -314 0
312 313 541 0
-312 -541 0
-312 -313 0
-221 313 423 0
-313 -423 0
221 -313 0
-157 314 -315 0
-112 -157 314 -435 0
157 -314 0
112 -314 315 0
-314 315 435 0
315 -470 471 -472 0
-315 470 0
-315 -471 0
-315 472 0
-157 315 316 317 -421 0
157 -316 0
-316 -317 0
-316 421 0
-315 -316 0
159 317 538 -539 0
159 317 318 538 0
-317 -538 0
-159 -317 0
-317 -318 539 0
318 504 528 0
-318 -504 0
-318 -528 0
48 319 -320 0
-61 319 -320 423 0
-319 320 0
-48 -319 -423 0
-48 61 -319 0
320 -327 -335 0
320 321 -335 423 0
-320 335 0
-320 -321 327 0
-320 327 -423 0
321 322 326 0
-49 321 322 -324 0
-321 -322 0
49 -321 -326 0
-321 324 -326 0
322 425 519 525 0
322 323 -425 519 -525 0
-322 -425 525 0
-322 -323 -525 0
-322 -519 0
-322 425 -525 0
-289 323 -425 -522 0
-289 323 425 -523 0
289 -323 0
-323 -425 522 0
-323 425 523 0
-113 324 -325 524 0
-113 324 513 524 0
113 -324 0
-324 -524 0
-324 325 -513 0
-106 325 504 511 0
-94 -106 325 511 0
106 -325 0
-325 -511 0
94 -325 -504 0
-323 326 -425 -519 0
-326 425 0
-326 519 0
323 -326 0
59 327 -328 331 -333 0
-327 328 0
-327 -331 0
-59 -327 0
-327 333 0
-325 328 -329 0
328 330 -513 0
-325 328 -513 0
328 -329 330 0
325 -328 -330 0
-328 329 513 0
-159 329 -504 0
329 504 514 0
-329 504 -514 0
159 -329 -504 0
-106 330 512 0
330 504 512 0
-330 -512 0
106 -330 -504 0
-315 331 425 0
331 -332 425 0
-331 -425 0
315 -331 332 0
-114 332 -435 0
-332 435 0
114 -332 0
-159 333 -334 0
333 -334 -513 0
-333 334 0
159 -333 513 0
334 -423 425 440 0
334 -423 425 -515 0
-334 423 0
-334 -425 0
-334 -440 515 0
-102 335 -336 -339 0
139 335 -336 -339 0
-335 339 0
-335 336 0
102 -139 -335 0
-293 336 -337 0
293 336 338 0
-293 -336 337 0
293 -336 -338 0
-310 337 421 0
-337 -421 0
310 -337 0
-104 338 560 0
338 552 560 0
-338 -560 0
104 -338 -552 0
102 339 -340 -411 0
-338 339 -340 -411 0
-339 411 0
-339 340 0
-102 338 -339 0
-49 -307 340 -341 0
-61 -307 340 -341 0
-340 341 0
307 -340 0
49 61 -340 0
-311 -328 341 -342 -352 0
-341 352 0
311 -341 0
-341 342 0
328 -341 0
218 342 343 -344 0
112 342 343 -344 0
-342 344 0
-342 -343 0
-112 -218 -342 0
-325 343 -486 0
-343 486 0
325 -343 0
331 344 345 -349 -350 0
-331 -344 0
-344 350 0
-344 349 0
-344 -345 0
345 -346 347 0
-345 346 0
-345 -347 0
-107 346 486 0
-346 -486 0
107 -346 0
-95 -107 347 479 0
-95 347 -348 479 0
-347 -479 0
95 -347 0
107 -347 348 0
348 482 483 0
348 -462 483 0
348 450 462 -483 0
-348 -450 -483 0
-348 -462 -483 0
-348 462 -482 483 0
50 349 -561 0
-309 349 444 0
349 444 -561 0
50 -309 349 0
309 -349 561 0
-50 -349 -444 0
350 -351 0
350 -561 -579 0
-350 351 561 0
-350 351 579 0
-159 351 -552 0
351 552 563 0
-351 552 -563 0
159 -351 -552 0
352 -353 -391 409 410 0
-352 391 0
-352 -410 0
-352 353 0
-352 -409 0
353 -354 -366 -375 -381 0
-353 381 0
-353 354 0
-353 375 0
-353 366 0
158 354 -355 363 -364 0
-354 355 0
-354 -363 0
-158 -354 0
-354 364 0
355 -356 -357 -359 -361 0
-355 361 0
-355 356 0
-355 359 0
-355 357 0
-221 356 424 -506 0
356 -424 506 -507 0
356 424 -506 -507 0
-221 356 -424 506 0
-356 -424 -506 0
-356 424 506 0
221 -356 507 0
357 358 -475 0
357 358 440 466 0
-357 -358 0
-357 -466 475 0
-357 -440 475 0
358 448 -449 -450 0
-358 450 0
-358 449 0
-358 -448 0
359 360 -507 0
359 360 425 490 0
-359 -360 0
-359 -490 507 0
-359 -425 507 0
360 436 445 0
360 -436 437 0
-360 -436 -437 0
-360 436 -445 0
361 362 440 0
361 362 -425 0
361 362 -490 0
-361 -362 0
-361 425 -440 490 0
362 -421 555 0
362 -541 555 0
-362 -555 0
-362 421 541 0
363 436 -444 447 0
363 436 443 -444 0
-363 -436 0
-363 444 0
-363 -443 -447 0
364 -365 -418 570 0
364 -365 418 -570 0
364 418 -532 -570 0
364 -418 -532 570 0
-364 -418 -570 0
-364 418 570 0
-364 365 532 0
365 423 515 0
-365 -423 0
-365 -515 0
366 -367 -370 -371 -372 0
-366 372 0
-366 367 0
-366 371 0
-366 370 0
367 368 -369 453 0
367 368 -369 -448 0
-367 369 0
-367 -368 0
-367 448 -453 0
368 445 454 0
-368 -445 0
-368 -454 0
369 -453 -473 474 -478 0
-369 478 0
-369 453 0
-369 473 0
-369 -474 0
370 531 -535 -553 554 0
-370 -531 0
-370 -554 0
-370 553 0
-370 535 0
371 -505 506 -510 -530 0
-371 530 0
-371 505 0
-371 510 0
-371 -506 0
372 -373 -374 426 -474 0
372 -373 -374 -426 474 0
-372 374 0
-372 426 474 0
-372 373 0
-372 -426 -474 0
373 -451 -571 0
373 452 564 0
373 -451 564 0
373 452 -571 0
-373 451 -452 0
-373 -564 571 0
374 420 -422 531 -554 0
374 420 422 -531 -554 0
374 -420 422 -531 554 0
374 -420 -422 531 554 0
-374 -420 -554 0
-374 420 554 0
-374 -422 -531 0
-374 422 531 0
159 315 375 -376 -379 0
-159 -375 0
-375 379 0
-375 376 0
-315 -375 0
156 376 -377 -515 0
156 -221 376 -377 0
-376 377 0
-156 -376 0
221 -376 515 0
377 378 -423 0
377 378 -515 0
-221 377 378 0
-377 -378 0
221 -377 423 515 0
378 433 -434 -435 0
-378 435 0
-378 434 0
-378 -433 0
379 -380 -586 587 591 0
-379 380 0
-379 -591 0
-379 586 0
-379 -587 0
380 -558 -569 570 -574 0
-380 574 0
-380 558 0
-380 569 0
-380 -570 0
309 317 381 -382 -388 0
-309 -381 0
-381 388 0
-381 382 0
-317 -381 0
-220 382 385 -387 0
382 -383 385 -387 0
-382 387 0
-382 -385 0
220 -382 383 0
383 384 -564 -571 -588 0
-383 588 0
-383 -384 0
-383 564 0
-383 571 0
384 421 541 0
-384 -421 0
-384 -541 0
159 385 561 -562 0
159 385 386 561 0
-385 -561 0
-159 -385 0
-385 -386 562 0
386 529 551 0
-386 -529 0
-386 -551 0
351 387 -579 0
-159 351 387 0
-247 351 387 0
-351 -387 0
159 247 -387 579 0
329 388 -389 0
329 388 428 0
-329 -388 0
-388 389 -428 0
389 -430 -431 0
389 430 432 0
389 390 -430 0
-389 430 -432 0
-389 -390 -430 431 0
390 -427 429 0
-390 427 0
-390 -429 0
308 332 391 -392 -394 0
-308 -391 0
-391 394 0
-391 392 0
-332 -391 0
392 393 -538 0
-329 392 393 0
-392 -393 0
329 -392 538 0
159 393 487 -488 0
159 348 393 487 0
-393 -487 0
-159 -393 0
-348 -393 488 0
394 -395 -406 -579 0
-158 394 -395 -406 0
-394 406 0
-394 395 0
158 -394 579 0
312 395 -396 -402 -404 0
-312 -395 0
-395 404 0
-395 402 0
-395 396 0
-159 396 398 -400 0
396 -397 398 -400 0
-396 400 0
-396 -398 0
159 -396 397 0
397 -448 -487 -513 0
397 463 -487 -513 0
-397 513 0
-397 487 0
-397 448 -463 0
398 -399 -444 -445 446 0
-398 399 0
-398 444 0
-398 445 0
-398 -446 0
399 -436 -443 0
-399 436 0
-399 443 0
400 -401 -532 0
-313 400 440 0
400 440 -532 0
-313 400 -401 0
-400 401 -440 0
313 -400 532 0
401 -439 442 0
401 438 -441 0
401 -439 -441 0
401 438 442 0
-401 441 -442 0
-401 -438 439 0
402 -403 416 -587 0
402 -403 -416 587 0
-402 403 0
-402 416 587 0
-402 -416 -587 0
403 -487 582 0
403 453 -588 0
403 453 582 0
403 -487 -588 0
-403 -453 487 0
-403 -582 588 0
156 404 405 0
315 404 405 0
-404 -405 0
-156 -315 -404 0
405 -440 459 0
405 -440 441 460 0
-405 440 0
-405 -441 -459 0
-405 -459 -460 0
-220 406 407 0
406 407 -555 -582 0
-406 -407 0
220 -406 555 0
220 -406 582 0
407 408 -440 0
-407 440 0
-407 -408 0
408 -466 -490 0
-408 466 0
-408 490 0
288 409 -417 0
288 409 -419 0
-288 -409 0
-409 417 419 0
-346 410 -451 0
-347 410 -451 0
-410 451 0
346 347 -410 0
-302 411 -412 413 0
337 411 -412 413 0
-411 412 0
-411 -413 0
302 -337 -411 0
302 314 412 0
314 -330 412 423 0
-314 -412 0
-302 330 -412 0
-302 -412 -423 0
-345 413 -425 0
413 414 -425 0
52 413 -425 0
-413 425 0
-52 345 -413 -414 0
315 414 415 440 0
315 414 415 -490 0
-414 -415 0
-315 -414 0
-414 -440 490 0
159 415 487 0
-415 -487 0
-159 -415 0
1 2 0
-1 -2 0
767 0

